data/lp_files/pEFS/65_8.lp
\ Model foo
\ LP format - for model browsing. Use MPS format to capture full model detail.
Minimize
  z
Subject To
 allocateEach[1]: x[1,1] + x[2,1] + x[3,1] + x[4,1] = 1
 allocateEach[2]: x[1,2] + x[2,2] + x[3,2] + x[4,2] = 1
 allocateEach[3]: x[1,3] + x[2,3] + x[3,3] + x[4,3] = 1
 allocateEach[4]: x[1,4] + x[2,4] + x[3,4] + x[4,4] = 1
 allocateEach[5]: x[1,5] + x[2,5] + x[3,5] + x[4,5] = 1
 allocateAllCash: cashProportion[1] + cashProportion[2] + cashProportion[3]
   + cashProportion[4] = 1
 findWorstP[1,2]: z + 0.2850627137970354 cashProportion[1]
   - 0.2850627137970354 cashProportion[2] + 0.0380558722919042 x[1,1]
   + 0.325577251995439 x[1,2] + 0.1683295324971494 x[1,3]
   + 0.1165550171037628 x[1,4] + 0.0664196123147092 x[1,5]
   - 0.0380558722919042 x[2,1] - 0.325577251995439 x[2,2]
   - 0.1683295324971494 x[2,3] - 0.1165550171037628 x[2,4]
   - 0.0664196123147092 x[2,5] >= 0
 findWorstP[1,3]: z + 0.2850627137970354 cashProportion[1]
   - 0.2850627137970354 cashProportion[3] + 0.0380558722919042 x[1,1]
   + 0.325577251995439 x[1,2] + 0.1683295324971494 x[1,3]
   + 0.1165550171037628 x[1,4] + 0.0664196123147092 x[1,5]
   - 0.0380558722919042 x[3,1] - 0.325577251995439 x[3,2]
   - 0.1683295324971494 x[3,3] - 0.1165550171037628 x[3,4]
   - 0.0664196123147092 x[3,5] >= 0
 findWorstP[1,4]: z + 0.2850627137970354 cashProportion[1]
   - 0.2850627137970354 cashProportion[4] + 0.0380558722919042 x[1,1]
   + 0.325577251995439 x[1,2] + 0.1683295324971494 x[1,3]
   + 0.1165550171037628 x[1,4] + 0.0664196123147092 x[1,5]
   - 0.0380558722919042 x[4,1] - 0.325577251995439 x[4,2]
   - 0.1683295324971494 x[4,3] - 0.1165550171037628 x[4,4]
   - 0.0664196123147092 x[4,5] >= 0
 findWorstP[2,1]: z - 0.24330900243309 cashProportion[1]
   + 0.24330900243309 cashProportion[2] - 0.2944038929440389 x[1,1]
   - 0.031478102189781 x[1,2] - 0.1577250608272506 x[1,3]
   - 0.0820863746958637 x[1,4] - 0.1909975669099757 x[1,5]
   + 0.2944038929440389 x[2,1] + 0.031478102189781 x[2,2]
   + 0.1577250608272506 x[2,3] + 0.0820863746958637 x[2,4]
   + 0.1909975669099757 x[2,5] >= 0
 findWorstP[2,3]: z + 0.24330900243309 cashProportion[2]
   - 0.24330900243309 cashProportion[3] + 0.2944038929440389 x[2,1]
   + 0.031478102189781 x[2,2] + 0.1577250608272506 x[2,3]
   + 0.0820863746958637 x[2,4] + 0.1909975669099757 x[2,5]
   - 0.2944038929440389 x[3,1] - 0.031478102189781 x[3,2]
   - 0.1577250608272506 x[3,3] - 0.0820863746958637 x[3,4]
   - 0.1909975669099757 x[3,5] >= 0
 findWorstP[2,4]: z + 0.24330900243309 cashProportion[2]
   - 0.24330900243309 cashProportion[4] + 0.2944038929440389 x[2,1]
   + 0.031478102189781 x[2,2] + 0.1577250608272506 x[2,3]
   + 0.0820863746958637 x[2,4] + 0.1909975669099757 x[2,5]
   - 0.2944038929440389 x[4,1] - 0.031478102189781 x[4,2]
   - 0.1577250608272506 x[4,3] - 0.0820863746958637 x[4,4]
   - 0.1909975669099757 x[4,5] >= 0
 findWorstP[3,1]: z - 0.2493143854400399 cashProportion[1]
   + 0.2493143854400399 cashProportion[3] - 0.0257105459985041 x[1,1]
   - 0.1431376215407629 x[1,2] - 0.2048117676389928 x[1,3]
   - 0.1982672650211917 x[1,4] - 0.1787584143605086 x[1,5]
   + 0.0257105459985041 x[3,1] + 0.1431376215407629 x[3,2]
   + 0.2048117676389928 x[3,3] + 0.1982672650211917 x[3,4]
   + 0.1787584143605086 x[3,5] >= 0
 findWorstP[3,2]: z - 0.2493143854400399 cashProportion[2]
   + 0.2493143854400399 cashProportion[3] - 0.0257105459985041 x[2,1]
   - 0.1431376215407629 x[2,2] - 0.2048117676389928 x[2,3]
   - 0.1982672650211917 x[2,4] - 0.1787584143605086 x[2,5]
   + 0.0257105459985041 x[3,1] + 0.1431376215407629 x[3,2]
   + 0.2048117676389928 x[3,3] + 0.1982672650211917 x[3,4]
   + 0.1787584143605086 x[3,5] >= 0
 findWorstP[3,4]: z + 0.2493143854400399 cashProportion[3]
   - 0.2493143854400399 cashProportion[4] + 0.0257105459985041 x[3,1]
   + 0.1431376215407629 x[3,2] + 0.2048117676389928 x[3,3]
   + 0.1982672650211917 x[3,4] + 0.1787584143605086 x[3,5]
   - 0.0257105459985041 x[4,1] - 0.1431376215407629 x[4,2]
   - 0.2048117676389928 x[4,3] - 0.1982672650211917 x[4,4]
   - 0.1787584143605086 x[4,5] >= 0
 findWorstP[4,1]: z - 0.2332905633967106 cashProportion[1]
   + 0.2332905633967106 cashProportion[4] - 0.00650297445468331 x[1,1]
   - 0.1080426921731016 x[1,2] - 0.2351860492243088 x[1,3]
   - 0.2076869240639216 x[1,4] - 0.209290796687274 x[1,5]
   + 0.00650297445468331 x[4,1] + 0.1080426921731016 x[4,2]
   + 0.2351860492243088 x[4,3] + 0.2076869240639216 x[4,4]
   + 0.209290796687274 x[4,5] >= 0
 findWorstP[4,2]: z - 0.2332905633967106 cashProportion[2]
   + 0.2332905633967106 cashProportion[4] - 0.00650297445468331 x[2,1]
   - 0.1080426921731016 x[2,2] - 0.2351860492243088 x[2,3]
   - 0.2076869240639216 x[2,4] - 0.209290796687274 x[2,5]
   + 0.00650297445468331 x[4,1] + 0.1080426921731016 x[4,2]
   + 0.2351860492243088 x[4,3] + 0.2076869240639216 x[4,4]
   + 0.209290796687274 x[4,5] >= 0
 findWorstP[4,3]: z - 0.2332905633967106 cashProportion[3]
   + 0.2332905633967106 cashProportion[4] - 0.00650297445468331 x[3,1]
   - 0.1080426921731016 x[3,2] - 0.2351860492243088 x[3,3]
   - 0.2076869240639216 x[3,4] - 0.209290796687274 x[3,5]
   + 0.00650297445468331 x[4,1] + 0.1080426921731016 x[4,2]
   + 0.2351860492243088 x[4,3] + 0.2076869240639216 x[4,4]
   + 0.209290796687274 x[4,5] >= 0
Bounds
 z <= 1
 -infinity <= cashProportion[1] <= 1
 -infinity <= cashProportion[2] <= 1
 -infinity <= cashProportion[3] <= 1
 -infinity <= cashProportion[4] <= 1
Binaries
 x[1,1] x[1,2] x[1,3] x[1,4] x[1,5] x[2,1] x[2,2] x[2,3] x[2,4] x[2,5]
 x[3,1] x[3,2] x[3,3] x[3,4] x[3,5] x[4,1] x[4,2] x[4,3] x[4,4] x[4,5]
End
